JulietBench/Juliet_Based_Patch_Bench/linux/CWE-189-Numeric-Errors/CVE_2012_0044_a5cd335165e31db9dbab636fd29895d41da55dd2/Resultdrm_mode_dirtyfb_ioctl_Snippet_patch1NEQ.smt2
; benchmark generated from python API
(set-info :status unknown)
(declare-fun R () (_ BitVec 32))
(declare-fun rdi () (_ BitVec 64))
(assert
 (let (($x184 (= (_ bv0 32) R)))
 (let ((?x6 ((_ extract 31 0) rdi)))
 (let (($x10 (= (_ bv0 32) ?x6)))
 (let (($x174 (and $x10 $x184)))
 (let (($x180 (= (_ bv4294967274 32) R)))
 (let (($x36 (and (distinct (_ bv0 32) ?x6) true)))
 (let ((?x7 ((_ zero_extend 32) ?x6)))
 (let ((?x52 (bvlshr ?x7 (_ bv31 64))))
 (let ((?x58 ((_ extract 0 0) ?x52)))
 (let ((?x59 (bvand ?x58 (_ bv1 1))))
 (let (($x60 (and (distinct (_ bv0 1) ?x59) true)))
 (let (($x178 (and $x60 $x36 $x180)))
 (let (($x146 (= R ?x6)))
 (let (($x135 (= (_ bv0 1) ?x59)))
 (let (($x54 (bvsge (_ bv256 32) ?x6)))
 (let (($x177 (and $x54 $x135 $x36 $x146)))
 (let (($x173 (bvslt (_ bv256 32) ?x6)))
 (let (($x179 (and $x173 $x135 $x36 $x180)))
 (let (($x186 (or $x179 $x177 $x178 $x174)))
 (let (($x189 (not $x186)))
 (let (($x183 (and $x36 $x146)))
 (let (($x175 (or $x183 $x174)))
 (let (($x188 (not $x175)))
 (let (($x190 (and $x188 $x189)))
 (let (($x187 (and $x175 $x186)))
 (let (($x191 (or $x187 $x190)))
 (not $x191))))))))))))))))))))))))))))
(check-sat)
